Optimal - objective value 812356.14760282
      0 C0000000               0                      -0
      1 C0000001               0                      -0
      2 C0000002               0                      -0
      3 C0000003               1                      -0
      4 C0000004               0                      -0
      5 C0000005               0                      -0
      6 C0000006               0                      -0
      7 C0000007               0                      -0
      8 C0000008               0                      -0
      9 C0000009               0                      -0
     10 C0000010               0                      -0
     11 C0000011               0                      -0
     12 C0000012               0                      -0
     13 C0000013               0                      -0
     14 C0000014               0                      -0
     15 C0000015               0                      -0
     16 C0000016               0                      -0
     17 C0000017               1                      -0
     18 C0000018               1                      -0
     19 C0000019               1                      -0
     20 C0000020               1                      -0
     21 C0000021               1                      -0
     22 C0000022               1                      -0
     23 C0000023               1                      -0
     24 C0000024               1                      -0
     25 C0000025               1                      -0
     26 C0000026               1                      -0
     27 C0000027               1                      -0
     28 C0000028               1                      -0
     29 C0000029               1                      -0
     30 C0000030               1                      -0
     31 C0000031               1                      -0
     32 C0000032               1                      -0
     33 C0000033               1                      -0
     34 C0000034               1                      -0
     35 C0000035               1                      -0
     36 C0000036               1                      -0
     37 C0000037               1                      -0
     38 C0000038               1                      -0
     39 C0000039               1                      -0
     40 C0000040               1                      -0
     41 C0000041               1                      -0
     42 C0000042               1                      -0
     43 C0000043               1                      -0
     44 C0000044               1                      -0
     45 C0000045               1                      -0
     46 C0000046               1                      -0
     47 C0000047               1                      -0
     48 C0000048               1                      -0
     49 C0000049               1                      -0
     50 C0000050               1                      -0
     51 C0000051               1                      -0
     52 C0000052               1                      -0
     53 C0000053               1                      -0
     54 C0000054               1                      -0
     55 C0000055               1                      -0
     56 C0000056               0                      -0
     57 C0000057               0                      -0
     58 C0000058               0                      -0
     59 C0000059               0                      -0
     60 C0000060               0                      -0
     61 C0000061               0                      -0
     62 C0000062               0                      -0
     63 C0000063               0                      -0
     64 C0000064               0                      -0
     65 C0000065               0                      -0
     66 C0000066               0                      -0
     67 C0000067               0                      -0
     68 C0000068               0                      -0
     69 C0000069               1                      -0
     70 C0000070               0                      -0
     71 C0000071               0                      -0
     72 C0000072               0                      -0
     73 C0000073               0                      -0
     74 C0000074               0                      -0
     75 C0000075               0                      -0
     76 C0000076               1                      -0
     77 C0000077               1                      -0
     78 C0000078               1                      -0
     79 C0000079               0                      -0
     80 C0000080               0                      -0
     81 C0000081               0                      -0
     82 C0000082               0                      -0
     83 C0000083               0                      -0
     84 C0000084               0                      -0
     85 C0000085               0                      -0
     86 C0000086               0                      -0
     87 C0000087               0                      -0
     88 C0000088               0                      -0
     89 C0000089               0                      -0
     90 C0000090               0                      -0
     91 C0000091               0                      -0
     92 C0000092               0                      -0
     93 C0000093               1                      -0
     94 C0000094               0                      -0
     95 C0000095               0                      -0
     96 C0000096               0                      -0
     97 C0000097               0                      -0
     98 C0000098               0                      -0
     99 C0000099               0                      -0
    100 C0000100               0                      -0
    101 C0000101               0                      -0
    102 C0000102               0                      -0
    103 C0000103               0                      -0
    104 C0000104               0                      -0
    105 C0000105               0                      -0
    106 C0000106               1                      -0
    107 C0000107               0                      -0
    108 C0000108               0                      -0
    109 C0000109               0                      -0
    110 C0000110               0                      -0
    111 C0000111               0                      -0
    112 C0000112               0                      -0
    113 C0000113               0                      -0
    114 C0000114               1                      -0
    115 C0000115               1                      -0
    116 C0000116               1                      -0
    117 C0000117               1                      -0
    118 C0000118               1                      -0
    119 C0000119               1                      -0
    120 C0000120               1                      -0
    121 C0000121               1                      -0
    122 C0000122               1                      -0
    123 C0000123               1                      -0
    124 C0000124               1                      -0
    125 C0000125               1                      -0
    126 C0000126               0                      -0
    127 C0000127               0                      -0
    128 C0000128               0                      -0
    129 C0000129               1                      -0
    130 C0000130               0                      -0
    131 C0000131               0                      -0
    132 C0000132               0                      -0
    133 C0000133               1                      -0
    134 C0000134               0                      -0
    135 C0000135               0                      -0
    136 C0000136               0                      -0
    137 C0000137               0                      -0
    138 C0000138               0                      -0
    139 C0000139               0                      -0
    140 C0000140               0                      -0
    141 C0000141               0                      -0
    142 C0000142               1                      -0
    143 C0000143               1                      -0
    144 C0000144               0                      -0
    145 C0000145               0                      -0
    146 C0000146               0                      -0
    147 C0000147               0                      -0
    148 C0000148               0                      -0
    149 C0000149               1                      -0
    150 C0000150               0                      -0
    151 C0000151               0                      -0
    152 C0000152               0                      -0
    153 C0000153               0                      -0
    154 C0000154               0                      -0
    155 C0000155               1                      -0
    156 C0000156               1                      -0
    157 C0000157               0                      -0
    158 C0000158               0                      -0
    159 C0000159               0                      -0
    160 C0000160               0                      -0
    161 C0000161               1                      -0
    162 C0000162               0                      -0
    163 C0000163               0                      -0
    164 C0000164               0                      -0
    165 C0000165               0                      -0
    166 C0000166               0                      -0
    167 C0000167               0                      -0
    168 C0000168               0                      -0
    169 C0000169               1                      -0
    170 C0000170               1                      -0
    171 C0000171               0                      -0
    172 C0000172               0                      -0
    173 C0000173               0                      -0
    174 C0000174               0                      -0
    175 C0000175               0                      -0
    176 C0000176               0                      -0
    177 C0000177               1                      -0
    178 C0000178               1                      -0
    179 C0000179               0                      -0
    180 C0000180               0                      -0
    181 C0000181               0                      -0
    182 C0000182               0                      -0
    183 C0000183               0                      -0
    184 C0000184               0                      -0
    185 C0000185               0                      -0
    186 C0000186               0                      -0
    187 C0000187               0                      -0
    188 C0000188               0                      -0
    189 C0000189               0                      -0
    190 C0000190               0                      -0
    191 C0000191               0                      -0
    192 C0000192               0                      -0
    193 C0000193               0                      -0
    194 C0000194               1                      -0
    195 C0000195               1                      -0
    196 C0000196               0                      -0
    197 C0000197               0                      -0
    198 C0000198               0                      -0
    199 C0000199               0                      -0
    200 C0000200               0                      -0
    201 C0000201               0                      -0
    202 C0000202               0                      -0
    203 C0000203               0                      -0
    204 C0000204               0                      -0
    205 C0000205               0                      -0
    206 C0000206               0                      -0
    207 C0000207               0                      -0
    208 C0000208               0                      -0
    209 C0000209               0                      -0
    210 C0000210               1                      -0
    211 C0000211               1                      -0
    212 C0000212               1                      -0
    213 C0000213               1                      -0
    214 C0000214               1                      -0
    215 C0000215               1                      -0
    216 C0000216               1                      -0
    217 C0000217               1                      -0
    218 C0000218               1                      -0
    219 C0000219               1                      -0
    220 C0000220               1                      -0
    221 C0000221               1                      -0
    222 C0000222               0                      -0
    223 C0000223               0                      -0
    224 C0000224               0                      -0
    225 C0000225               1                      -0
    226 C0000226               0                      -0
    227 C0000227               1                      -0
    228 C0000228               1                      -0
    229 C0000229               0                      -0
    230 C0000230               0                      -0
    231 C0000231               0                      -0
    232 C0000232               0                      -0
    233 C0000233               0                      -0
    234 C0000234               0                      -0
    235 C0000235               1                      -0
    236 C0000236               0                      -0
    237 C0000237               1                      -0
    238 C0000238               1                      -0
    239 C0000239               0                      -0
    240 C0000240               0                      -0
    241 C0000241               0                      -0
    242 C0000242               1                      -0
    243 C0000243               1                      -0
    244 C0000244               0                      -0
    245 C0000245               0                      -0
    246 C0000246               0                      -0
    247 C0000247               0                      -0
    248 C0000248               1                      -0
    249 C0000249               0                      -0
    250 C0000250               0                      -0
    251 C0000251               0                      -0
    252 C0000252               0                      -0
    253 C0000253               0                      -0
    254 C0000254               1                      -0
    255 C0000255               0                      -0
    256 C0000256               1                      -0
    257 C0000257               0                      -0
    258 C0000258               0                      -0
    259 C0000259               0                      -0
    260 C0000260               1                      -0
    261 C0000261               0                      -0
    262 C0000262               1                      -0
    263 C0000263               0                      -0
    264 C0000264               0                      -0
    265 C0000265               1                      -0
    266 C0000266               0                      -0
    267 C0000267               0                      -0
    268 C0000268               0                      -0
    269 C0000269               1                      -0
    270 C0000270               0                      -0
    271 C0000271               1                      -0
    272 C0000272               0                      -0
    273 C0000273               0                      -0
    274 C0000274               0                      -0
    275 C0000275               1                      -0
    276 C0000276               0                      -0
    277 C0000277               1                      -0
    278 C0000278               1                      -0
    279 C0000279               1                      -0
    280 C0000280               0                      -0
    281 C0000281               0                      -0
    282 C0000282               0                      -0
    283 C0000283               0                      -0
    284 C0000284               0                      -0
    285 C0000285               1                      -0
    286 C0000286               0                      -0
    287 C0000287               1                      -0
    288 C0000288               1                      -0
    289 C0000289               1                      -0
    290 C0000290               0                      -0
    291 C0000291               0                      -0
    292 C0000292               0                      -0
    293 C0000293               0                      -0
    294 C0000294               0                      -0
    295 C0000295               1                      -0
    296 C0000296               0                      -0
    297 C0000297               1                      -0
    298 C0000298               1                      -0
    299 C0000299               1                      -0
    300 C0000300               0                      -0
    301 C0000301               0                      -0
    302 C0000302               0                      -0
    303 C0000303               0                      -0
    304 C0000304               0                      -0
    305 C0000305               0                      -0
    306 C0000306               1                      -0
    307 C0000307               0                      -0
    308 C0000308               1                      -0
    309 C0000309               1                      -0
    310 C0000310               1                      -0
    311 C0000311               0                      -0
    312 C0000312               0                      -0
    313 C0000313               0                      -0
    314 C0000314               0                      -0
    315 C0000315               0                      -0
    316 C0000316               0                      -0
    317 C0000317               1                      -0
      0 X0000000               0                       0
      1 X0000001               1               402653.64
      2 X0000002               1               402653.64
      3 X0000003               1               7.8041018
      4 X0000004               0               2653.2977
      5 X0000005               0                       0
      6 X0000006               0               2481.2336
      7 X0000007               0               17.114301
      8 X0000008               0               1.7103394
      9 X0000009               1               6912.6241
     10 X0000010               0               14.635631
     11 X0000011               0                       0
     12 X0000012               0               428.40338
     13 X0000013               0               73.967021
     14 X0000014               0               324.55923
     15 X0000015               0               1272.3141
     16 X0000016               0               128.43911
     17 X0000017               1               128.43911
     18 X0000018               0                       0
     19 X0000019               0                       0
     20 X0000020               0                       0
     21 X0000021               0                       0
     22 X0000022               0                       0
     23 X0000023               0               1.4774554
     24 X0000024               0                 11.4674
     25 X0000025               0                       0
     26 X0000026               0                       0
     27 X0000027               0                       0
     28 X0000028               0                2.565509
     29 X0000029               0               6912.6241
     30 X0000030               0                424.1047
     31 X0000031               0               12.348407
     32 X0000032               0                       0
     33 X0000033               0                55.19533
     34 X0000034               0                       0
